proble size: m = 5 , n = 5 , seed = 9 
Benders' cuts separated to cut off: Only integer infeasible solutions.
seed = 9
Version identifier: 20.1.0.0 | 2020-11-10 | 9bedb6d68
CPXPARAM_Threads                                 1
CPXPARAM_RandomSeed                              9
CPXPARAM_MIP_Strategy_CallbackReducedLP          0
CPXPARAM_MIP_Strategy_Search                     1
CPXPARAM_TimeLimit                               3600
CPXPARAM_MIP_Tolerances_AbsMIPGap                0
CPXPARAM_MIP_Tolerances_MIPGap                   0
Legacy callback                                  L
Tried aggregator 1 time.
Reduced MIP has 20 rows, 420 columns, and 400 nonzeros.
Reduced MIP has 400 binaries, 0 generals, 0 SOSs, and 0 indicators.
Presolve time = 0.00 sec. (0.16 ticks)
Probing time = 0.00 sec. (0.32 ticks)
Clique table members: 20.
MIP emphasis: balance optimality and feasibility.
MIP search method: traditional branch-and-cut.
Parallel mode: none, using 1 thread.
Root relaxation solution time = 0.00 sec. (0.09 ticks)

        Nodes                                         Cuts/
   Node  Left     Objective  IInf  Best Integer    Best Bound    ItCnt     Gap         Variable B NodeID Parent  Depth

      0     0        0.0000    16                      0.0000        0         
*     0+    0                          497.4853        0.0000           100.00%
*     0+    0                          367.9887        0.0000           100.00%
      0     0       79.2553    22      367.9887      Fract: 6       12   78.46%
*     0+    0                          366.0451       79.2553            78.35%
*     0+    0                          291.1213       79.2553            72.78%
      0     0      117.2391    19      291.1213      Fract: 9       34   59.73%
*     0+    0                          250.7955      117.2391            53.25%
*     0+    0                          196.2605      117.2391            40.26%
*     0+    0                          186.1290      117.2391            37.01%
      0     2      136.0319    28      186.1290      136.0781       34   26.89%                        0             0
Elapsed time = 0.02 sec. (12.64 ticks, tree = 0.01 MB, solutions = 7)
*    10+   10                          184.6795      136.3832            26.15%
*    20+   20                          176.9593      136.3832            22.93%
*    20+   20                          151.0246      136.3832             9.69%
*    30+   29                          150.9903      136.3832             9.67%
*    40+   26                          145.0993      136.3832             6.01%
*    50+   22                          142.1070      136.6191             3.86%

Gomory fractional cuts applied:  11
User cuts applied:  85

Root node processing (before b&c):
  Real time             =    0.02 sec. (12.68 ticks)
Sequential b&c:
  Real time             =    0.10 sec. (91.52 ticks)
                          ------------
Total (root+branch&cut) =    0.12 sec. (104.20 ticks)

Solution status: 101
Objective value:  1.4210700000e+02
Solution status is CPX_STAT_OPTIMAL
Node: 476
